NODE_COORD_SECTION
1 294.75636010970624 138.2156249796429
1 27.028007310465085 704.1614364538301
1 605.5015586560929 751.7200710297946
1 644.0824146222324 78.09187960897842
1 592.1499338191916 551.4106183589105
1 143.068118323872 147.4300047700538
1 175.47685836678716 34.59313122169441
1 385.037522386723 449.49724253442156
1 228.5177308056845 102.55616668731555
1 705.7996624082147 36.690370216807366
